peakDumbCharging = 29600; 
Machine = anon_enum(16); 
machineSpeed = [3700,3700,3700,3700,3700,3700,3700,3700,3700,3700,3700,3700,3700,3700,3700,3700]; 
machineLoad = [3700,3700,3700,3700,3700,3700,3700,3700,3700,3700,3700,3700,3700,3700,3700,3700]; 
Car = anon_enum(24); 
demandCar = [15480,10560,1800,2960,27960,7520,7520,3080,7720,16121,7400,20640,8360,4720,3720,42240,10040,7240,4360,13800,35360,3720,34360,2680]; 
arrivalCar = [77,76,69,69,67,67,66,66,65,64,64,62,62,56,55,55,52,49,45,44,35,35,33,32]; 
departureCar = [82,81,71,71,81,71,71,69,69,71,67,70,65,59,57,72,56,52,48,49,50,38,45,43]; 
